c This file describes a weighted CNF in MC 2020 format with 6 variables and 5 clauses 
p wcnf 6 5
w 1 0.8 0
w -1 0.2 0
w 2 0.11 0
w -2 0.89 0
w 3 0.18 0
w -3 0.82 0
w 4 0.28 0
w -4 0.72 0
w 5 0.06
w -5 0.94 0
w 6 0.81 0
w -6 0.19 0
-1 -2 0
-2 3 5 0
c this is a comment and will be ignored
4 5 0
2 -4 0
2 0
